NAME : 10_3_3_2_(40).dat
COMMENT : Henke, Speranza, Wäscher, 2015
TYPE : MCVRP
DIMENSION : 11
EDGE_WEIGHT_TYPE : DISTANCE_MATRIX
CAPACITY : 1000
VEHICLES : 2
PRODUCT TYPES : 3
COMPARTMENTS : 3
NODE_COORD_SECTION
1 50 50
2 28.7 91.25
3 13.63 7.81
4 41.77 20.6
5 42.84 55.13
6 13.39 92.88
7 91.74 1.88
8 8.06 30.31
9 38.16 19.1
10 97.01 45.26
11 7.41 50.38
DEMAND_SECTION
1 0 0 0
2 39 10 0
3 60 18 0
4 82 73 0
5 80 66 0
6 0 25 9
7 76 80 0
8 93 49 0
9 93 0 21
10 17 0 222
11 91 57 0
DEPOT_SECTION
1
EOF